Results/Experiment 1 Results/Existing Benchmark/RES_60/i-60-75-7.txt
solutions: 2 nodes: 4  modelTime: 114  solveTime: 23  totalTime: 143  modelSize: 7854  readTime: 6 matchingSize: 30
