Results/Experiment 2 Results/Existing Benchmark/i-60-75-7.lp
clingo version 5.4.0
Reading from tempSRTISolver.lp ...
Solving...
Answer: 1
matched(16,3) matched(32,4) matched(43,5) matched(13,6) matched(24,7) matched(15,8) matched(23,9) matched(45,10) matched(27,11) matched(21,12) matched(57,14) matched(8,15) matched(3,16) matched(22,17) matched(19,18) matched(18,19) matched(12,21) matched(9,23) matched(7,24) matched(34,25) matched(48,26) matched(2,28) matched(56,29) matched(50,30) matched(52,31) matched(4,32) matched(58,33) matched(55,36) matched(51,37) matched(41,38) matched(20,39) matched(59,40) matched(49,42) matched(5,43) matched(10,45) matched(60,46) matched(44,47) matched(26,48) matched(42,49) matched(31,52) matched(1,53) matched(35,54) matched(29,56) matched(33,58) matched(40,59) matched(6,13) matched(39,20) matched(17,22) matched(54,35) matched(38,41) matched(47,44) matched(30,50) matched(36,55) matched(14,57) matched(46,60) matched(53,1) matched(28,2) matched(11,27) matched(25,34) matched(37,51)
Optimization: 367
Answer: 2
matched(37,3) matched(32,4) matched(43,5) matched(13,6) matched(24,7) matched(15,8) matched(23,9) matched(45,10) matched(27,11) matched(21,12) matched(57,14) matched(8,15) matched(44,16) matched(22,17) matched(19,18) matched(18,19) matched(12,21) matched(9,23) matched(7,24) matched(34,25) matched(48,26) matched(2,28) matched(56,29) matched(50,30) matched(52,31) matched(4,32) matched(58,33) matched(55,36) matched(3,37) matched(41,38) matched(20,39) matched(59,40) matched(49,42) matched(5,43) matched(10,45) matched(60,46) matched(51,47) matched(26,48) matched(42,49) matched(31,52) matched(1,53) matched(35,54) matched(29,56) matched(33,58) matched(40,59) matched(6,13) matched(39,20) matched(17,22) matched(54,35) matched(38,41) matched(16,44) matched(30,50) matched(36,55) matched(14,57) matched(46,60) matched(53,1) matched(28,2) matched(11,27) matched(25,34) matched(47,51)
Optimization: 355
OPTIMUM FOUND

Models       : 2
  Optimum    : yes
Optimization : 355
Calls        : 1
Time         : 3.158s (Solving: 0.25s 1st Model: 0.09s Unsat: 0.10s)
CPU Time     : 3.156s
